NAME : N1.408100620.tour
COMMENT : Cost = 0_408100620
COMMENT : Found by LKH [Keld Helsgaun] Sun Sep 10 08:14:28 2017
TYPE : TOUR
DIMENSION : 161
TOUR_SECTION
1
106
133
125
85
111
128
129
131
99
67
68
76
6
23
11
152
105
120
143
64
80
71
101
92
77
108
28
39
154
140
141
144
137
98
94
150
118
114
145
65
151
21
37
51
14
4
155
63
61
52
75
74
66
104
135
70
96
18
29
40
34
44
49
8
5
13
45
156
90
83
130
59
147
148
100
117
127
121
36
50
48
35
25
33
159
58
82
81
139
91
87
89
54
69
86
22
41
46
30
17
47
42
161
88
153
56
136
112
55
110
102
95
113
72
10
38
19
27
160
53
142
126
146
123
107
138
2
15
31
24
158
84
97
103
124
115
79
73
57
134
93
43
32
3
7
157
60
109
116
149
122
78
119
62
132
12
9
16
26
20
-1
EOF
